(set-logic ALL)
(declare-const k Int)
(declare-fun s () (_ BitVec k))
(declare-fun t () (_ BitVec k))
(assert (distinct (distinct s (bvlshr t (bvudiv (_ bv1 k) s))) (distinct s (bvshl t (bvudiv (_ bv0 k) s)))))
(check-sat)
